Version identifier: 12.10.0.0 | 2019-11-26 | 843d4de
CPXPARAM_WorkMem                                 28672
Tried aggregator 2 times.
MIP Presolve modified 75 coefficients.
Aggregator did 45 substitutions.
Reduced MIP has 245 rows, 300 columns, and 1155 nonzeros.
Reduced MIP has 300 binaries, 0 generals, 0 SOSs, and 0 indicators.
Presolve time = 0,00 sec. (1,50 ticks)
Found incumbent of value 222,000000 after 0,01 sec. (2,72 ticks)
Probing time = 0,00 sec. (0,45 ticks)
Tried aggregator 1 time.
Detecting symmetries...
MIP Presolve eliminated 50 rows and 0 columns.
MIP Presolve added 100 rows and 0 columns.
Reduced MIP has 295 rows, 300 columns, and 1205 nonzeros.
Reduced MIP has 300 binaries, 0 generals, 0 SOSs, and 0 indicators.
Presolve time = 0,00 sec. (1,51 ticks)
Probing time = 0,00 sec. (0,44 ticks)
Clique table members: 800.
MIP emphasis: balance optimality and feasibility.
MIP search method: dynamic search.
Parallel mode: deterministic, using up to 16 threads.
Root relaxation solution time = 0,00 sec. (1,66 ticks)

        Nodes                                         Cuts/
   Node  Left     Objective  IInf  Best Integer    Best Bound    ItCnt     Gap

*     0+    0                          222,0000        0,0000           100,00%
*     0+    0                          129,0000        0,0000           100,00%
*     0+    0                          119,0000        0,0000           100,00%
*     0+    0                          117,0000        0,0000           100,00%
      0     0       48,7667   232      117,0000       48,7667      147   58,32%
      0     0       48,8749   232      117,0000     Cuts: 107      238   58,23%
      0     0       50,2882   232      117,0000     Cuts: 173      310   57,02%
      0     0       51,5350   232      117,0000     Cuts: 173      398   55,95%
      0     0       52,3471   232      117,0000     Cuts: 173      460   55,26%
      0     0       53,2885   232      117,0000     Cuts: 173      540   54,45%
      0     0       60,2428   232      117,0000     Cuts: 173      732   48,51%
      0     0       60,9826   232      117,0000     Cuts: 141      834   47,88%
      0     0       61,3512   232      117,0000     Cuts: 115      908   47,56%
      0     0       61,8343   232      117,0000     Cuts: 130      992   47,15%
*     0+    0                          107,0000       61,8343            42,21%
      0     0       62,1001   232      107,0000      Cuts: 99     1080   41,96%
      0     0       62,3912   232      107,0000      Cuts: 76     1146   41,69%
      0     0       62,6672   232      107,0000      Cuts: 98     1201   41,43%
      0     0       62,8693   232      107,0000      Cuts: 24     1250   41,24%
      0     0       63,0786   232      107,0000      Cuts: 85     1310   41,05%
      0     0       63,2359   232      107,0000     Cuts: 102     1345   40,90%
      0     0       63,4707   232      107,0000      Cuts: 41     1415   40,68%
      0     0       63,8837   232      107,0000     Cuts: 116     1532   40,30%
      0     0       63,9251   232      107,0000      Cuts: 74     1559   40,26%
      0     0       63,9950   232      107,0000  ZeroHalf: 17     1644   40,19%
      0     0       64,0581   232      107,0000       Cuts: 9     1699   40,13%
      0     0       64,1300   232      107,0000      Cuts: 12     1778   40,07%
      0     0       64,2805   232      107,0000      Cuts: 89     1877   39,92%
      0     0       64,3167   232      107,0000      Cuts: 19     1940   39,89%
      0     0       64,3303   232      107,0000      Cuts: 10     1989   39,88%
      0     0       64,3515   232      107,0000      Cuts: 46     2047   39,86%
      0     0       64,3899   232      107,0000      Cuts: 40     2136   39,82%
      0     0       64,4086   232      107,0000      Cuts: 39     2191   39,81%
      0     0       64,4407   232      107,0000      Cuts: 46     2266   39,78%
      0     0       64,4551   232      107,0000      Cuts: 38     2337   39,76%
      0     2       64,4551   286      107,0000       66,9968     2337   37,39%
Elapsed time = 0,62 sec. (360,57 ticks, tree = 0,02 MB, solutions = 5)
   2750   646        cutoff            107,0000       77,8257    96920   27,27%

GUB cover cuts applied:  37
Clique cuts applied:  50
Cover cuts applied:  303
Flow cuts applied:  3
Mixed integer rounding cuts applied:  117
Zero-half cuts applied:  62
Lift and project cuts applied:  22
Gomory fractional cuts applied:  8

Root node processing (before b&c):
  Real time             =    0,62 sec. (360,03 ticks)
Parallel b&c, 16 threads:
  Real time             =    0,48 sec. (361,39 ticks)
  Sync time (average)   =    0,16 sec.
  Wait time (average)   =    0,00 sec.
                          ------------
Total (root+branch&cut) =    1,10 sec. (721,41 ticks)
